qe/outputs/qe/cbrdelay_l0_discretize/T=5,eliminate=[I_0,I_1,I_2,I_3,I_4,lhs=Q_4].smt2
; benchmark generated from python API
(set-info :status unknown)
(declare-fun S_1 () Real)
(declare-fun S_2 () Real)
(declare-fun C () Real)
(declare-fun S_3 () Real)
(declare-fun A_0 () Real)
(declare-fun L_0 () Real)
(declare-fun S_0 () Real)
(declare-fun L0 () Real)
(declare-fun B () Real)
(declare-fun A_4 () Real)
(declare-fun L_2 () Real)
(declare-fun L_3 () Real)
(declare-fun L_1 () Real)
(declare-fun A_1 () Real)
(declare-fun A_2 () Real)
(declare-fun A_3 () Real)
(declare-fun S_4 () Real)
(assert
 (let (($x37 (>= L0 0.0)))
 (let (($x749 (>= C 5.0)))
 (let (($x747 (>= B 5.0)))
 (let (($x6645 (<= (+ (* (- 4.0) C) (* (- 1.0) L_0) A_4 (* (- 1.0) S_1)) 0.0)))
 (let (($x819 (not (<= L_3 L_2))))
 (let (($x814 (not (<= L_2 L_1))))
 (let (($x809 (not (<= L_1 L_0))))
 (let ((?x281 (* (- 1.0) L_1)))
 (let ((?x866 (+ A_2 ?x281)))
 (let (($x1157 (>= S_3 ?x866)))
 (let (($x9621 (or $x1157 (<= (+ (* (- 1.0) L_0) (* (- 1.0) S_3) A_1 C) 0.0) (<= (+ (* 2.0 C) (* (- 1.0) S_3) S_0) 0.0))))
 (let ((?x570 (* (- 1.0) L_0)))
 (let ((?x848 (+ A_0 ?x570)))
 (let ((?x1806 (* (- 3.0) C)))
 (let ((?x272 (* (- 1.0) L_3)))
 (let ((?x526 (* (- 1.0) B)))
 (let ((?x6315 (+ ?x526 ?x272 A_3 ?x1806)))
 (let (($x6659 (<= (+ (* (- 5.0) C) ?x570 (* (- 1.0) S_0) A_4) 0.0)))
 (let (($x9415 (or $x809 $x814 $x6659 (not (<= 0.0 (+ (* (- 1.0) C) A_4 (* (- 1.0) A_3)))))))
 (let (($x9432 (or $x809 $x814 $x819 (<= (+ (* (- 4.0) C) (* (- 1.0) A_0) A_4) 0.0))))
 (let (($x9455 (or $x809 $x814 $x819 (<= (+ ?x1806 ?x570 (* (- 1.0) S_2) A_4) 0.0))))
 (let (($x6647 (or $x809 $x814 $x819 (<= (+ (* (- 2.0) C) ?x570 (* (- 1.0) S_3) A_4) 0.0))))
 (let (($x9628 (or (not (<= L_3 L_1)) (<= (+ A_3 (* (- 1.0) A_2) (* (- 1.0) C)) B))))
 (let (($x1851 (= L_3 L_1)))
 (let (($x1102 (not (= L_1 L_2))))
 (let (($x6474 (or $x809 $x1102 $x1851 (<= (+ A_2 ?x570 L_3 (* (- 1.0) A_3) C) 0.0))))
 (let (($x9773 (or (<= (+ A_1 ?x570 (* (- 1.0) S_2)) 0.0) (<= (+ C (* (- 1.0) S_2) S_0) 0.0))))
 (let ((?x265 (* (- 1.0) C)))
 (let ((?x6292 (+ ?x526 ?x272 A_3 ?x265)))
 (let (($x6293 (<= (+ A_2 ?x570) ?x6292)))
 (let (($x74 (= L_3 L_2)))
 (let (($x9814 (or $x74 (not (<= L_2 L_0)) $x6293 (<= (+ A_1 ?x570 L_3 (* (- 1.0) A_3) (* 2.0 C)) 0.0))))
 (let (($x6385 (= (+ ?x526 L_0 ?x272 A_3 (* (- 1.0) A_1) (* (- 2.0) C)) 0.0)))
 (let (($x9340 (or (not (<= (+ A_1 ?x570) (+ ?x526 ?x272 A_3 (* (- 2.0) C)))) $x6385)))
 (let ((?x754 (* (- 2.0) C)))
 (let ((?x6308 (+ ?x526 ?x272 A_3 ?x754)))
 (let ((?x853 (+ A_1 ?x570)))
 (let (($x6372 (<= ?x853 ?x6308)))
 (let (($x9603 (or $x74 $x6293 $x6372 (not (<= 0.0 (+ C (* (- 1.0) A_1) L_0 S_0))))))
 (let (($x6411 (<= 0.0 (+ C (* (- 1.0) A_1) L_0 S_0))))
 (let (($x1570 (= L_2 L_0)))
 (let (($x1505 (not (= L_0 L_1))))
 (let (($x9380 (or $x1505 $x1570 (<= (+ A_1 ?x570 L_2 (* (- 1.0) A_2) C) 0.0))))
 (let (($x6267 (= (+ ?x265 A_2 (* (- 1.0) L_2) ?x526 (* (- 1.0) A_1) L_0) 0.0)))
 (let ((?x326 (* (- 1.0) L_2)))
 (let ((?x6139 (+ ?x526 ?x326 A_2 ?x265)))
 (let (($x6260 (<= ?x853 ?x6139)))
 (let (($x64 (= L_2 L_1)))
 (let (($x54 (= L_1 L_0)))
 (let (($x5509 (<= A_2 (+ A_1 ?x526 C))))
 (let (($x9390 (or $x54 $x74 $x5509 (= (+ A_1 ?x281 (* 2.0 C)) (+ A_3 ?x272)))))
 (let (($x36 (>= L_0 L0)))
 (let (($x111 (>= S_1 S_0)))
 (let (($x114 (>= S_2 S_1)))
 (let (($x117 (>= S_3 S_2)))
 (let (($x122 (>= A_1 A_0)))
 (let (($x123 (>= A_2 A_1)))
 (let (($x124 (>= A_3 A_2)))
 (let (($x125 (>= A_4 A_3)))
 (and (<= (+ A_4 ?x272) S_4) $x125 $x124 $x123 $x122 $x117 $x114 $x111 $x36 (or $x74 (<= S_3 (+ A_3 ?x272 ?x526))) (>= S_3 (+ A_2 ?x326 ?x526)) (>= S_2 (+ A_1 ?x281 ?x526)) (or $x64 (<= S_2 (+ A_2 ?x326 ?x526))) (or $x54 (<= S_0 (+ ?x526 ?x281 A_1 ?x265))) (<= S_4 (+ A_4 ?x272)) (or $x74 (<= A_4 (+ A_3 ?x526 C))) (>= S_1 (+ ?x526 ?x281 A_1 ?x265)) (>= S_0 (+ ?x526 ?x281 A_1 ?x754)) (<= (+ ?x526 ?x281 A_1 ?x265) ?x848) (or $x64 $x814) (or $x54 $x809) (or $x54 (<= S_1 (+ A_1 ?x281 ?x526))) (or $x5509 (>= S_3 (+ A_1 ?x281 ?x526 C))) (or $x1157 (not $x5509)) (or $x1851 (not $x5509) (= (+ A_2 ?x281 C) (+ A_3 ?x272 ?x526))) (or $x54 (<= S_2 (+ A_1 ?x281 ?x526 C))) (or $x54 $x64 (= (+ A_2 ?x326) (+ A_1 ?x281 C))) (or $x64 $x74 (= (+ A_3 ?x272) (+ A_2 ?x326 C))) (or $x64 (<= A_3 (+ A_2 C)) (not (= L_2 L_3))) (or $x74 $x819) $x9390 (<= A_4 (+ A_3 C)) (<= S_3 (+ A_3 ?x326)) (or $x54 $x814 $x819 (<= A_4 (+ A_1 ?x526 (* 3.0 C)))) (or $x54 (<= S_3 (+ A_1 ?x281 ?x526 (* 2.0 C)))) (or $x54 $x1102 (<= (+ A_2 (* (- 1.0) A_1) ?x265) 0.0)) (or $x54 $x814 $x819 (<= (+ A_3 (* (- 1.0) A_1) ?x754) 0.0)) (>= S_2 ?x6139) (>= S_1 (+ ?x526 ?x326 A_2 ?x754)) (<= (+ ?x526 ?x326 A_2 ?x754) ?x848) (or $x64 (<= S_1 ?x6139)) (or $x64 (<= S_0 (+ ?x526 ?x326 A_2 ?x754)) $x6260) (<= (+ (* (- 1.0) A_1) L_0 S_1) 0.0) (or $x6267 (not $x6260)) (>= S_0 (+ ?x526 ?x326 A_2 ?x1806)) $x9380 (or $x74 (<= S_2 ?x6292)) (or $x74 $x809 $x6293 (<= S_1 ?x6308)) (or $x64 $x819 (<= A_4 (+ A_2 ?x526 (* 2.0 C)))) (or (= (+ A_2 ?x570 C) (+ A_3 ?x272 ?x526)) (not $x6293)) (or $x64 (<= S_3 (+ A_2 ?x326 ?x526 C))) (<= (+ ?x265 L_0 (* (- 1.0) A_0) S_1) 0.0) (or $x74 $x809 $x6293 (<= S_0 ?x6315) $x6411) $x9603 $x9340 $x9814 $x9773 (<= (+ ?x754 (* (- 1.0) S_0) S_1) 0.0) $x6474 (<= S_2 ?x866) (<= S_3 (+ A_2 ?x281 C)) (<= (+ L_0 (* (- 1.0) A_1) S_2 ?x265) 0.0) $x9628 (or $x819 (<= A_4 (+ A_2 (* 2.0 C)))) (or $x1157 (<= (+ C (* (- 1.0) S_3) S_1) 0.0)) $x6647 $x9455 (<= (+ ?x1806 S_3 (* (- 1.0) S_1)) 0.0) $x9432 $x9415 (<= (+ ?x754 L_0 (* (- 1.0) A_0) S_2) 0.0) (>= S_3 ?x6292) (>= S_2 ?x6308) (or $x809 $x814 $x819 $x6659) (or $x814 $x819 (<= (+ ?x1806 (* (- 1.0) A_1) A_4) 0.0)) (<= ?x6315 ?x848) (>= S_0 (+ ?x526 ?x272 A_3 (* (- 4.0) C))) (<= (+ L_0 ?x754 (* (- 1.0) A_1) S_3) 0.0) (>= S_1 ?x6315) $x9621 (or $x809 $x814 $x819 $x6645) $x747 $x749 $x37 (<= (+ L_0 (* (- 1.0) A_0) S_0) 0.0) (<= (+ ?x1806 S_2 (* (- 1.0) S_0)) 0.0) (<= (+ (* (- 4.0) C) S_3 (* (- 1.0) S_0)) 0.0) (<= (+ ?x1806 L_0 (* (- 1.0) A_0) S_3) 0.0) (<= (+ ?x754 S_3 (* (- 1.0) S_2)) 0.0) (<= (+ ?x754 S_2 (* (- 1.0) S_1)) 0.0))))))))))))))))))))))))))))))))))))))))))))))))))))))))))))))
(check-sat)
